solution status: optimal solution found
objective value:                                    0
$_35_z                                              2 	(obj:0)
$_190_y                                             2 	(obj:0)
$_190_z                                             7 	(obj:0)
$_180_y                                             3 	(obj:0)
$_180_z                                            10 	(obj:0)
$_184_y                                            -1 	(obj:0)
$_184_z                                             6 	(obj:0)
$_149_y                                             6 	(obj:0)
$_149_z                                             7 	(obj:0)
$_103_z                                             6 	(obj:0)
$_57_y                                            -11 	(obj:0)
$_57_z                                             -5 	(obj:0)
$_225_y                                            -2 	(obj:0)
$_225_z                                             5 	(obj:0)
$_231_y                                            -1 	(obj:0)
$_231_z                                             4 	(obj:0)
$_262_z                                             5 	(obj:0)
$_102_y                                            -8 	(obj:0)
$_102_z                                            -2 	(obj:0)
$_221_y                                             2 	(obj:0)
$_221_z                                             8 	(obj:0)
$_286_y                                            -4 	(obj:0)
$_286_z                                             2 	(obj:0)
$_36_y                                             -2 	(obj:0)
$_36_z                                              4 	(obj:0)
$_266_y                                            -4 	(obj:0)
$_266_z                                             1 	(obj:0)
$_58_y                                            -10 	(obj:0)
$_58_z                                             -4 	(obj:0)
$_272_y                                            -5 	(obj:0)
$_272_z                                             1 	(obj:0)
